NAME : R181_20_120.1865866.tour
COMMENT : Cost = 0_1865866
COMMENT : Found by LKH [Keld Helsgaun] Thu Sep 14 11:15:41 2017
TYPE : TOUR
DIMENSION : 22
TOUR_SECTION
1
17
7
10
2
11
5
6
14
16
9
3
22
8
13
19
12
20
21
4
15
18
-1
EOF
